p cnf 12 40
12 11 10 0
12 10 9 0
12 9 2 0
12 -7 6 0
12 -4 3 0
12 -4 -3 0
-12 2 -1 0
11 -10 -9 0
11 8 -6 0
-11 8 -6 0
11 8 4 0
-11 -7 -6 0
11 7 3 0
11 3 2 0
11 3 1 0
-10 9 -2 0
-10 -8 -2 0
-10 -7 5 0
-10 -7 -3 0
10 6 -2 0
10 -5 2 0
10 3 2 0
9 -8 5 0
9 -7 6 0
9 -7 -2 0
-9 7 -1 0
9 6 -3 0
-9 6 -3 0
9 5 -3 0
8 7 5 0
-8 -5 3 0
8 5 2 0
8 4 -1 0
8 2 1 0
-7 5 3 0
7 5 -1 0
-7 4 -1 0
7 -3 -2 0
-6 5 -3 0
-6 -3 -1 0
